p cnf 18 24
-2 0
-4 0
-18 0
-20 0
-25 0
-28 -29 0
-29 -31 0
-37 0
-28 -43 0
-31 -43 0
-41 -43 0
-51 0
-29 -53 0
-43 -53 0
-50 -53 0
-53 -55 0
-63 0
-53 -65 0
-65 -67 0
-55 -67 0
-50 -67 0
-43 -67 0
-29 -41 0
-29 -67 0
